%SETS
JOBS     = 1..2;
MACHINES = 1..14;
SPEED    = 1;

time               = array3d(JOBS,MACHINES,1..SPEED,[16, 17, 11, 84, 80, 88, 98, 81, 51, 80, 20, 67, 22, 95, 56, 47, 33, 79, 51, 61, 11, 65, 65, 65, 94, 71, 42, 49]);
energy             = array3d(JOBS,MACHINES,1..SPEED,[85, 84, 89, 43, 44, 41, 37, 44, 60, 44, 81, 51, 80, 38, 57, 62, 71, 45, 60, 54, 89, 52, 52, 52, 39, 49, 65, 61]);
precedence         = array2d(JOBS,MACHINES,[3,13,5,9,0,2,8,12,4,11,6,10,7,1,3,0,1,4,9,13,7,5,6,11,10,8,12,2]);